p cnf 252 1620
1 -157 -121 0
-1 157 -121 0
1 157 -122 0
-1 -157 -122 0
21 -157 -127 0
-21 157 -127 0
21 157 -128 0
-21 -157 -128 0
41 -157 -133 0
-41 157 -133 0
41 157 -134 0
-41 -157 -134 0
61 -157 -139 0
-61 157 -139 0
61 157 -140 0
-61 -157 -140 0
81 -157 -145 0
-81 157 -145 0
81 157 -146 0
-81 -157 -146 0
101 -157 -151 0
-101 157 -151 0
101 157 -152 0
-101 -157 -152 0
2 -121 0
2 -122 0
121 -121 0
122 -122 0
22 -127 0
22 -128 0
127 -127 0
128 -128 0
42 -133 0
42 -134 0
133 -133 0
134 -134 0
62 -139 0
62 -140 0
139 -139 0
140 -140 0
82 -145 0
82 -146 0
145 -145 0
146 -146 0
102 -151 0
102 -152 0
151 -151 0
152 -152 0
3 -158 -121 0
-3 158 -121 0
3 158 -122 0
-3 -158 -122 0
23 -158 -127 0
-23 158 -127 0
23 158 -128 0
-23 -158 -128 0
43 -158 -133 0
-43 158 -133 0
43 158 -134 0
-43 -158 -134 0
63 -158 -139 0
-63 158 -139 0
63 158 -140 0
-63 -158 -140 0
83 -158 -145 0
-83 158 -145 0
83 158 -146 0
-83 -158 -146 0
103 -158 -151 0
-103 158 -151 0
103 158 -152 0
-103 -158 -152 0
4 -159 -121 0
-4 159 -121 0
4 159 -122 0
-4 -159 -122 0
24 -159 -127 0
-24 159 -127 0
24 159 -128 0
-24 -159 -128 0
44 -159 -133 0
-44 159 -133 0
44 159 -134 0
-44 -159 -134 0
64 -159 -139 0
-64 159 -139 0
64 159 -140 0
-64 -159 -140 0
84 -159 -145 0
-84 159 -145 0
84 159 -146 0
-84 -159 -146 0
104 -159 -151 0
-104 159 -151 0
104 159 -152 0
-104 -159 -152 0
5 -160 -121 0
-5 160 -121 0
5 160 -122 0
-5 -160 -122 0
25 -160 -127 0
-25 160 -127 0
25 160 -128 0
-25 -160 -128 0
45 -160 -133 0
-45 160 -133 0
45 160 -134 0
-45 -160 -134 0
65 -160 -139 0
-65 160 -139 0
65 160 -140 0
-65 -160 -140 0
85 -160 -145 0
-85 160 -145 0
85 160 -146 0
-85 -160 -146 0
105 -160 -151 0
-105 160 -151 0
105 160 -152 0
-105 -160 -152 0
6 -121 0
6 -122 0
121 -121 0
122 -122 0
26 -127 0
26 -128 0
127 -127 0
128 -128 0
46 -133 0
46 -134 0
133 -133 0
134 -134 0
66 -139 0
66 -140 0
139 -139 0
140 -140 0
86 -145 0
86 -146 0
145 -145 0
146 -146 0
106 -151 0
106 -152 0
151 -151 0
152 -152 0
7 -121 0
7 -122 0
121 -121 0
122 -122 0
27 -127 0
27 -128 0
127 -127 0
128 -128 0
47 -133 0
47 -134 0
133 -133 0
134 -134 0
67 -139 0
67 -140 0
139 -139 0
140 -140 0
87 -145 0
87 -146 0
145 -145 0
146 -146 0
107 -151 0
107 -152 0
151 -151 0
152 -152 0
8 -161 -121 0
-8 161 -121 0
8 161 -122 0
-8 -161 -122 0
28 -161 -127 0
-28 161 -127 0
28 161 -128 0
-28 -161 -128 0
48 -161 -133 0
-48 161 -133 0
48 161 -134 0
-48 -161 -134 0
68 -161 -139 0
-68 161 -139 0
68 161 -140 0
-68 -161 -140 0
88 -161 -145 0
-88 161 -145 0
88 161 -146 0
-88 -161 -146 0
108 -161 -151 0
-108 161 -151 0
108 161 -152 0
-108 -161 -152 0
9 -121 0
9 -122 0
121 -121 0
122 -122 0
29 -127 0
29 -128 0
127 -127 0
128 -128 0
49 -133 0
49 -134 0
133 -133 0
134 -134 0
69 -139 0
69 -140 0
139 -139 0
140 -140 0
89 -145 0
89 -146 0
145 -145 0
146 -146 0
109 -151 0
109 -152 0
151 -151 0
152 -152 0
-10 -121 0
-10 -122 0
121 -121 0
122 -122 0
-30 -127 0
-30 -128 0
127 -127 0
128 -128 0
-50 -133 0
-50 -134 0
133 -133 0
134 -134 0
-70 -139 0
-70 -140 0
139 -139 0
140 -140 0
-90 -145 0
-90 -146 0
145 -145 0
146 -146 0
-110 -151 0
-110 -152 0
151 -151 0
152 -152 0
-11 -121 0
-11 -122 0
121 -121 0
122 -122 0
-31 -127 0
-31 -128 0
127 -127 0
128 -128 0
-51 -133 0
-51 -134 0
133 -133 0
134 -134 0
-71 -139 0
-71 -140 0
139 -139 0
140 -140 0
-91 -145 0
-91 -146 0
145 -145 0
146 -146 0
-111 -151 0
-111 -152 0
151 -151 0
152 -152 0
12 -121 0
12 -122 0
121 -121 0
122 -122 0
32 -127 0
32 -128 0
127 -127 0
128 -128 0
52 -133 0
52 -134 0
133 -133 0
134 -134 0
72 -139 0
72 -140 0
139 -139 0
140 -140 0
92 -145 0
92 -146 0
145 -145 0
146 -146 0
112 -151 0
112 -152 0
151 -151 0
152 -152 0
13 -121 0
13 -122 0
121 -121 0
122 -122 0
33 -127 0
33 -128 0
127 -127 0
128 -128 0
53 -133 0
53 -134 0
133 -133 0
134 -134 0
73 -139 0
73 -140 0
139 -139 0
140 -140 0
93 -145 0
93 -146 0
145 -145 0
146 -146 0
113 -151 0
113 -152 0
151 -151 0
152 -152 0
-14 -121 0
-14 -122 0
121 -121 0
122 -122 0
-34 -127 0
-34 -128 0
127 -127 0
128 -128 0
-54 -133 0
-54 -134 0
133 -133 0
134 -134 0
-74 -139 0
-74 -140 0
139 -139 0
140 -140 0
-94 -145 0
-94 -146 0
145 -145 0
146 -146 0
-114 -151 0
-114 -152 0
151 -151 0
152 -152 0
-15 -121 0
-15 -122 0
121 -121 0
122 -122 0
-35 -127 0
-35 -128 0
127 -127 0
128 -128 0
-55 -133 0
-55 -134 0
133 -133 0
134 -134 0
-75 -139 0
-75 -140 0
139 -139 0
140 -140 0
-95 -145 0
-95 -146 0
145 -145 0
146 -146 0
-115 -151 0
-115 -152 0
151 -151 0
152 -152 0
16 -121 0
16 -122 0
121 -121 0
122 -122 0
36 -127 0
36 -128 0
127 -127 0
128 -128 0
56 -133 0
56 -134 0
133 -133 0
134 -134 0
76 -139 0
76 -140 0
139 -139 0
140 -140 0
96 -145 0
96 -146 0
145 -145 0
146 -146 0
116 -151 0
116 -152 0
151 -151 0
152 -152 0
17 -121 0
17 -122 0
121 -121 0
122 -122 0
37 -127 0
37 -128 0
127 -127 0
128 -128 0
57 -133 0
57 -134 0
133 -133 0
134 -134 0
77 -139 0
77 -140 0
139 -139 0
140 -140 0
97 -145 0
97 -146 0
145 -145 0
146 -146 0
117 -151 0
117 -152 0
151 -151 0
152 -152 0
18 -121 0
18 -122 0
121 -121 0
122 -122 0
38 -127 0
38 -128 0
127 -127 0
128 -128 0
58 -133 0
58 -134 0
133 -133 0
134 -134 0
78 -139 0
78 -140 0
139 -139 0
140 -140 0
98 -145 0
98 -146 0
145 -145 0
146 -146 0
118 -151 0
118 -152 0
151 -151 0
152 -152 0
19 -121 0
19 -122 0
121 -121 0
122 -122 0
39 -127 0
39 -128 0
127 -127 0
128 -128 0
59 -133 0
59 -134 0
133 -133 0
134 -134 0
79 -139 0
79 -140 0
139 -139 0
140 -140 0
99 -145 0
99 -146 0
145 -145 0
146 -146 0
119 -151 0
119 -152 0
151 -151 0
152 -152 0
20 -121 0
20 -122 0
121 -121 0
122 -122 0
40 -127 0
40 -128 0
127 -127 0
128 -128 0
60 -133 0
60 -134 0
133 -133 0
134 -134 0
80 -139 0
80 -140 0
139 -139 0
140 -140 0
100 -145 0
100 -146 0
145 -145 0
146 -146 0
120 -151 0
120 -152 0
151 -151 0
152 -152 0
-217 121 0
217 -121 0
-218 122 0
217 -122 0
-217 -121 0
-218 -122 0
-223 121 217 0
223 -121 0
223 -217 0
-224 122 218 0
224 -122 0
224 -218 0
-223 -127 0
-224 -128 0
-229 127 223 0
229 -127 0
229 -223 0
-230 128 224 0
230 -128 0
230 -224 0
-229 -133 0
-230 -134 0
-235 133 229 0
235 -133 0
235 -229 0
-236 134 230 0
236 -134 0
236 -230 0
-235 -139 0
-236 -140 0
-241 139 235 0
241 -139 0
241 -235 0
-242 140 236 0
242 -140 0
242 -236 0
-241 -145 0
-242 -146 0
-247 145 241 0
247 -145 0
247 -241 0
-248 146 242 0
248 -146 0
248 -242 0
-247 -151 0
-248 -152 0
247 0
248 0
1 -162 -123 0
-1 162 -123 0
1 162 -124 0
-1 -162 -124 0
21 -162 -129 0
-21 162 -129 0
21 162 -130 0
-21 -162 -130 0
41 -162 -135 0
-41 162 -135 0
41 162 -136 0
-41 -162 -136 0
61 -162 -141 0
-61 162 -141 0
61 162 -142 0
-61 -162 -142 0
81 -162 -147 0
-81 162 -147 0
81 162 -148 0
-81 -162 -148 0
101 -162 -153 0
-101 162 -153 0
101 162 -154 0
-101 -162 -154 0
2 -163 -123 0
-2 163 -123 0
2 163 -124 0
-2 -163 -124 0
22 -163 -129 0
-22 163 -129 0
22 163 -130 0
-22 -163 -130 0
42 -163 -135 0
-42 163 -135 0
42 163 -136 0
-42 -163 -136 0
62 -163 -141 0
-62 163 -141 0
62 163 -142 0
-62 -163 -142 0
82 -163 -147 0
-82 163 -147 0
82 163 -148 0
-82 -163 -148 0
102 -163 -153 0
-102 163 -153 0
102 163 -154 0
-102 -163 -154 0
3 -123 0
3 -124 0
123 -123 0
124 -124 0
23 -129 0
23 -130 0
129 -129 0
130 -130 0
43 -135 0
43 -136 0
135 -135 0
136 -136 0
63 -141 0
63 -142 0
141 -141 0
142 -142 0
83 -147 0
83 -148 0
147 -147 0
148 -148 0
103 -153 0
103 -154 0
153 -153 0
154 -154 0
4 -123 0
4 -124 0
123 -123 0
124 -124 0
24 -129 0
24 -130 0
129 -129 0
130 -130 0
44 -135 0
44 -136 0
135 -135 0
136 -136 0
64 -141 0
64 -142 0
141 -141 0
142 -142 0
84 -147 0
84 -148 0
147 -147 0
148 -148 0
104 -153 0
104 -154 0
153 -153 0
154 -154 0
5 -164 -123 0
-5 164 -123 0
5 164 -124 0
-5 -164 -124 0
25 -164 -129 0
-25 164 -129 0
25 164 -130 0
-25 -164 -130 0
45 -164 -135 0
-45 164 -135 0
45 164 -136 0
-45 -164 -136 0
65 -164 -141 0
-65 164 -141 0
65 164 -142 0
-65 -164 -142 0
85 -164 -147 0
-85 164 -147 0
85 164 -148 0
-85 -164 -148 0
105 -164 -153 0
-105 164 -153 0
105 164 -154 0
-105 -164 -154 0
6 -123 0
6 -124 0
123 -123 0
124 -124 0
26 -129 0
26 -130 0
129 -129 0
130 -130 0
46 -135 0
46 -136 0
135 -135 0
136 -136 0
66 -141 0
66 -142 0
141 -141 0
142 -142 0
86 -147 0
86 -148 0
147 -147 0
148 -148 0
106 -153 0
106 -154 0
153 -153 0
154 -154 0
7 -123 0
7 -124 0
123 -123 0
124 -124 0
27 -129 0
27 -130 0
129 -129 0
130 -130 0
47 -135 0
47 -136 0
135 -135 0
136 -136 0
67 -141 0
67 -142 0
141 -141 0
142 -142 0
87 -147 0
87 -148 0
147 -147 0
148 -148 0
107 -153 0
107 -154 0
153 -153 0
154 -154 0
8 -165 -123 0
-8 165 -123 0
8 165 -124 0
-8 -165 -124 0
28 -165 -129 0
-28 165 -129 0
28 165 -130 0
-28 -165 -130 0
48 -165 -135 0
-48 165 -135 0
48 165 -136 0
-48 -165 -136 0
68 -165 -141 0
-68 165 -141 0
68 165 -142 0
-68 -165 -142 0
88 -165 -147 0
-88 165 -147 0
88 165 -148 0
-88 -165 -148 0
108 -165 -153 0
-108 165 -153 0
108 165 -154 0
-108 -165 -154 0
9 -166 -123 0
-9 166 -123 0
9 166 -124 0
-9 -166 -124 0
29 -166 -129 0
-29 166 -129 0
29 166 -130 0
-29 -166 -130 0
49 -166 -135 0
-49 166 -135 0
49 166 -136 0
-49 -166 -136 0
69 -166 -141 0
-69 166 -141 0
69 166 -142 0
-69 -166 -142 0
89 -166 -147 0
-89 166 -147 0
89 166 -148 0
-89 -166 -148 0
109 -166 -153 0
-109 166 -153 0
109 166 -154 0
-109 -166 -154 0
10 -167 -123 0
-10 167 -123 0
10 167 -124 0
-10 -167 -124 0
30 -167 -129 0
-30 167 -129 0
30 167 -130 0
-30 -167 -130 0
50 -167 -135 0
-50 167 -135 0
50 167 -136 0
-50 -167 -136 0
70 -167 -141 0
-70 167 -141 0
70 167 -142 0
-70 -167 -142 0
90 -167 -147 0
-90 167 -147 0
90 167 -148 0
-90 -167 -148 0
110 -167 -153 0
-110 167 -153 0
110 167 -154 0
-110 -167 -154 0
11 -123 0
11 -124 0
123 -123 0
124 -124 0
31 -129 0
31 -130 0
129 -129 0
130 -130 0
51 -135 0
51 -136 0
135 -135 0
136 -136 0
71 -141 0
71 -142 0
141 -141 0
142 -142 0
91 -147 0
91 -148 0
147 -147 0
148 -148 0
111 -153 0
111 -154 0
153 -153 0
154 -154 0
12 -168 -123 0
-12 168 -123 0
12 168 -124 0
-12 -168 -124 0
32 -168 -129 0
-32 168 -129 0
32 168 -130 0
-32 -168 -130 0
52 -168 -135 0
-52 168 -135 0
52 168 -136 0
-52 -168 -136 0
72 -168 -141 0
-72 168 -141 0
72 168 -142 0
-72 -168 -142 0
92 -168 -147 0
-92 168 -147 0
92 168 -148 0
-92 -168 -148 0
112 -168 -153 0
-112 168 -153 0
112 168 -154 0
-112 -168 -154 0
13 -123 0
13 -124 0
123 -123 0
124 -124 0
33 -129 0
33 -130 0
129 -129 0
130 -130 0
53 -135 0
53 -136 0
135 -135 0
136 -136 0
73 -141 0
73 -142 0
141 -141 0
142 -142 0
93 -147 0
93 -148 0
147 -147 0
148 -148 0
113 -153 0
113 -154 0
153 -153 0
154 -154 0
14 -169 -123 0
-14 169 -123 0
14 169 -124 0
-14 -169 -124 0
34 -169 -129 0
-34 169 -129 0
34 169 -130 0
-34 -169 -130 0
54 -169 -135 0
-54 169 -135 0
54 169 -136 0
-54 -169 -136 0
74 -169 -141 0
-74 169 -141 0
74 169 -142 0
-74 -169 -142 0
94 -169 -147 0
-94 169 -147 0
94 169 -148 0
-94 -169 -148 0
114 -169 -153 0
-114 169 -153 0
114 169 -154 0
-114 -169 -154 0
15 -170 -123 0
-15 170 -123 0
15 170 -124 0
-15 -170 -124 0
35 -170 -129 0
-35 170 -129 0
35 170 -130 0
-35 -170 -130 0
55 -170 -135 0
-55 170 -135 0
55 170 -136 0
-55 -170 -136 0
75 -170 -141 0
-75 170 -141 0
75 170 -142 0
-75 -170 -142 0
95 -170 -147 0
-95 170 -147 0
95 170 -148 0
-95 -170 -148 0
115 -170 -153 0
-115 170 -153 0
115 170 -154 0
-115 -170 -154 0
16 -123 0
16 -124 0
123 -123 0
124 -124 0
36 -129 0
36 -130 0
129 -129 0
130 -130 0
56 -135 0
56 -136 0
135 -135 0
136 -136 0
76 -141 0
76 -142 0
141 -141 0
142 -142 0
96 -147 0
96 -148 0
147 -147 0
148 -148 0
116 -153 0
116 -154 0
153 -153 0
154 -154 0
17 -171 -123 0
-17 171 -123 0
17 171 -124 0
-17 -171 -124 0
37 -171 -129 0
-37 171 -129 0
37 171 -130 0
-37 -171 -130 0
57 -171 -135 0
-57 171 -135 0
57 171 -136 0
-57 -171 -136 0
77 -171 -141 0
-77 171 -141 0
77 171 -142 0
-77 -171 -142 0
97 -171 -147 0
-97 171 -147 0
97 171 -148 0
-97 -171 -148 0
117 -171 -153 0
-117 171 -153 0
117 171 -154 0
-117 -171 -154 0
18 -172 -123 0
-18 172 -123 0
18 172 -124 0
-18 -172 -124 0
38 -172 -129 0
-38 172 -129 0
38 172 -130 0
-38 -172 -130 0
58 -172 -135 0
-58 172 -135 0
58 172 -136 0
-58 -172 -136 0
78 -172 -141 0
-78 172 -141 0
78 172 -142 0
-78 -172 -142 0
98 -172 -147 0
-98 172 -147 0
98 172 -148 0
-98 -172 -148 0
118 -172 -153 0
-118 172 -153 0
118 172 -154 0
-118 -172 -154 0
19 -173 -123 0
-19 173 -123 0
19 173 -124 0
-19 -173 -124 0
39 -173 -129 0
-39 173 -129 0
39 173 -130 0
-39 -173 -130 0
59 -173 -135 0
-59 173 -135 0
59 173 -136 0
-59 -173 -136 0
79 -173 -141 0
-79 173 -141 0
79 173 -142 0
-79 -173 -142 0
99 -173 -147 0
-99 173 -147 0
99 173 -148 0
-99 -173 -148 0
119 -173 -153 0
-119 173 -153 0
119 173 -154 0
-119 -173 -154 0
20 -123 0
20 -124 0
123 -123 0
124 -124 0
40 -129 0
40 -130 0
129 -129 0
130 -130 0
60 -135 0
60 -136 0
135 -135 0
136 -136 0
80 -141 0
80 -142 0
141 -141 0
142 -142 0
100 -147 0
100 -148 0
147 -147 0
148 -148 0
120 -153 0
120 -154 0
153 -153 0
154 -154 0
-219 123 0
219 -123 0
-220 124 0
219 -124 0
-219 -123 0
-220 -124 0
-225 123 219 0
225 -123 0
225 -219 0
-226 124 220 0
226 -124 0
226 -220 0
-225 -129 0
-226 -130 0
-231 129 225 0
231 -129 0
231 -225 0
-232 130 226 0
232 -130 0
232 -226 0
-231 -135 0
-232 -136 0
-237 135 231 0
237 -135 0
237 -231 0
-238 136 232 0
238 -136 0
238 -232 0
-237 -141 0
-238 -142 0
-243 141 237 0
243 -141 0
243 -237 0
-244 142 238 0
244 -142 0
244 -238 0
-243 -147 0
-244 -148 0
-249 147 243 0
249 -147 0
249 -243 0
-250 148 244 0
250 -148 0
250 -244 0
-249 -153 0
-250 -154 0
249 0
250 0
1 -174 -125 0
-1 174 -125 0
1 174 -126 0
-1 -174 -126 0
21 -174 -131 0
-21 174 -131 0
21 174 -132 0
-21 -174 -132 0
41 -174 -137 0
-41 174 -137 0
41 174 -138 0
-41 -174 -138 0
61 -174 -143 0
-61 174 -143 0
61 174 -144 0
-61 -174 -144 0
81 -174 -149 0
-81 174 -149 0
81 174 -150 0
-81 -174 -150 0
101 -174 -155 0
-101 174 -155 0
101 174 -156 0
-101 -174 -156 0
2 -125 0
2 -126 0
125 -125 0
126 -126 0
22 -131 0
22 -132 0
131 -131 0
132 -132 0
42 -137 0
42 -138 0
137 -137 0
138 -138 0
62 -143 0
62 -144 0
143 -143 0
144 -144 0
82 -149 0
82 -150 0
149 -149 0
150 -150 0
102 -155 0
102 -156 0
155 -155 0
156 -156 0
3 -125 0
3 -126 0
125 -125 0
126 -126 0
23 -131 0
23 -132 0
131 -131 0
132 -132 0
43 -137 0
43 -138 0
137 -137 0
138 -138 0
63 -143 0
63 -144 0
143 -143 0
144 -144 0
83 -149 0
83 -150 0
149 -149 0
150 -150 0
103 -155 0
103 -156 0
155 -155 0
156 -156 0
4 -125 0
4 -126 0
125 -125 0
126 -126 0
24 -131 0
24 -132 0
131 -131 0
132 -132 0
44 -137 0
44 -138 0
137 -137 0
138 -138 0
64 -143 0
64 -144 0
143 -143 0
144 -144 0
84 -149 0
84 -150 0
149 -149 0
150 -150 0
104 -155 0
104 -156 0
155 -155 0
156 -156 0
5 -125 0
5 -126 0
125 -125 0
126 -126 0
25 -131 0
25 -132 0
131 -131 0
132 -132 0
45 -137 0
45 -138 0
137 -137 0
138 -138 0
65 -143 0
65 -144 0
143 -143 0
144 -144 0
85 -149 0
85 -150 0
149 -149 0
150 -150 0
105 -155 0
105 -156 0
155 -155 0
156 -156 0
6 -125 0
6 -126 0
125 -125 0
126 -126 0
26 -131 0
26 -132 0
131 -131 0
132 -132 0
46 -137 0
46 -138 0
137 -137 0
138 -138 0
66 -143 0
66 -144 0
143 -143 0
144 -144 0
86 -149 0
86 -150 0
149 -149 0
150 -150 0
106 -155 0
106 -156 0
155 -155 0
156 -156 0
7 -125 0
7 -126 0
125 -125 0
126 -126 0
27 -131 0
27 -132 0
131 -131 0
132 -132 0
47 -137 0
47 -138 0
137 -137 0
138 -138 0
67 -143 0
67 -144 0
143 -143 0
144 -144 0
87 -149 0
87 -150 0
149 -149 0
150 -150 0
107 -155 0
107 -156 0
155 -155 0
156 -156 0
-8 -125 0
-8 -126 0
125 -125 0
126 -126 0
-28 -131 0
-28 -132 0
131 -131 0
132 -132 0
-48 -137 0
-48 -138 0
137 -137 0
138 -138 0
-68 -143 0
-68 -144 0
143 -143 0
144 -144 0
-88 -149 0
-88 -150 0
149 -149 0
150 -150 0
-108 -155 0
-108 -156 0
155 -155 0
156 -156 0
9 -125 0
9 -126 0
125 -125 0
126 -126 0
29 -131 0
29 -132 0
131 -131 0
132 -132 0
49 -137 0
49 -138 0
137 -137 0
138 -138 0
69 -143 0
69 -144 0
143 -143 0
144 -144 0
89 -149 0
89 -150 0
149 -149 0
150 -150 0
109 -155 0
109 -156 0
155 -155 0
156 -156 0
10 -175 -125 0
-10 175 -125 0
10 175 -126 0
-10 -175 -126 0
30 -175 -131 0
-30 175 -131 0
30 175 -132 0
-30 -175 -132 0
50 -175 -137 0
-50 175 -137 0
50 175 -138 0
-50 -175 -138 0
70 -175 -143 0
-70 175 -143 0
70 175 -144 0
-70 -175 -144 0
90 -175 -149 0
-90 175 -149 0
90 175 -150 0
-90 -175 -150 0
110 -175 -155 0
-110 175 -155 0
110 175 -156 0
-110 -175 -156 0
11 -125 0
11 -126 0
125 -125 0
126 -126 0
31 -131 0
31 -132 0
131 -131 0
132 -132 0
51 -137 0
51 -138 0
137 -137 0
138 -138 0
71 -143 0
71 -144 0
143 -143 0
144 -144 0
91 -149 0
91 -150 0
149 -149 0
150 -150 0
111 -155 0
111 -156 0
155 -155 0
156 -156 0
12 -176 -125 0
-12 176 -125 0
12 176 -126 0
-12 -176 -126 0
32 -176 -131 0
-32 176 -131 0
32 176 -132 0
-32 -176 -132 0
52 -176 -137 0
-52 176 -137 0
52 176 -138 0
-52 -176 -138 0
72 -176 -143 0
-72 176 -143 0
72 176 -144 0
-72 -176 -144 0
92 -176 -149 0
-92 176 -149 0
92 176 -150 0
-92 -176 -150 0
112 -176 -155 0
-112 176 -155 0
112 176 -156 0
-112 -176 -156 0
13 -125 0
13 -126 0
125 -125 0
126 -126 0
33 -131 0
33 -132 0
131 -131 0
132 -132 0
53 -137 0
53 -138 0
137 -137 0
138 -138 0
73 -143 0
73 -144 0
143 -143 0
144 -144 0
93 -149 0
93 -150 0
149 -149 0
150 -150 0
113 -155 0
113 -156 0
155 -155 0
156 -156 0
14 -177 -125 0
-14 177 -125 0
14 177 -126 0
-14 -177 -126 0
34 -177 -131 0
-34 177 -131 0
34 177 -132 0
-34 -177 -132 0
54 -177 -137 0
-54 177 -137 0
54 177 -138 0
-54 -177 -138 0
74 -177 -143 0
-74 177 -143 0
74 177 -144 0
-74 -177 -144 0
94 -177 -149 0
-94 177 -149 0
94 177 -150 0
-94 -177 -150 0
114 -177 -155 0
-114 177 -155 0
114 177 -156 0
-114 -177 -156 0
15 -178 -125 0
-15 178 -125 0
15 178 -126 0
-15 -178 -126 0
35 -178 -131 0
-35 178 -131 0
35 178 -132 0
-35 -178 -132 0
55 -178 -137 0
-55 178 -137 0
55 178 -138 0
-55 -178 -138 0
75 -178 -143 0
-75 178 -143 0
75 178 -144 0
-75 -178 -144 0
95 -178 -149 0
-95 178 -149 0
95 178 -150 0
-95 -178 -150 0
115 -178 -155 0
-115 178 -155 0
115 178 -156 0
-115 -178 -156 0
16 -125 0
16 -126 0
125 -125 0
126 -126 0
36 -131 0
36 -132 0
131 -131 0
132 -132 0
56 -137 0
56 -138 0
137 -137 0
138 -138 0
76 -143 0
76 -144 0
143 -143 0
144 -144 0
96 -149 0
96 -150 0
149 -149 0
150 -150 0
116 -155 0
116 -156 0
155 -155 0
156 -156 0
17 -179 -125 0
-17 179 -125 0
17 179 -126 0
-17 -179 -126 0
37 -179 -131 0
-37 179 -131 0
37 179 -132 0
-37 -179 -132 0
57 -179 -137 0
-57 179 -137 0
57 179 -138 0
-57 -179 -138 0
77 -179 -143 0
-77 179 -143 0
77 179 -144 0
-77 -179 -144 0
97 -179 -149 0
-97 179 -149 0
97 179 -150 0
-97 -179 -150 0
117 -179 -155 0
-117 179 -155 0
117 179 -156 0
-117 -179 -156 0
18 -125 0
18 -126 0
125 -125 0
126 -126 0
38 -131 0
38 -132 0
131 -131 0
132 -132 0
58 -137 0
58 -138 0
137 -137 0
138 -138 0
78 -143 0
78 -144 0
143 -143 0
144 -144 0
98 -149 0
98 -150 0
149 -149 0
150 -150 0
118 -155 0
118 -156 0
155 -155 0
156 -156 0
19 -180 -125 0
-19 180 -125 0
19 180 -126 0
-19 -180 -126 0
39 -180 -131 0
-39 180 -131 0
39 180 -132 0
-39 -180 -132 0
59 -180 -137 0
-59 180 -137 0
59 180 -138 0
-59 -180 -138 0
79 -180 -143 0
-79 180 -143 0
79 180 -144 0
-79 -180 -144 0
99 -180 -149 0
-99 180 -149 0
99 180 -150 0
-99 -180 -150 0
119 -180 -155 0
-119 180 -155 0
119 180 -156 0
-119 -180 -156 0
20 -125 0
20 -126 0
125 -125 0
126 -126 0
40 -131 0
40 -132 0
131 -131 0
132 -132 0
60 -137 0
60 -138 0
137 -137 0
138 -138 0
80 -143 0
80 -144 0
143 -143 0
144 -144 0
100 -149 0
100 -150 0
149 -149 0
150 -150 0
120 -155 0
120 -156 0
155 -155 0
156 -156 0
-221 125 0
221 -125 0
-222 126 0
221 -126 0
-221 -125 0
-222 -126 0
-227 125 221 0
227 -125 0
227 -221 0
-228 126 222 0
228 -126 0
228 -222 0
-227 -131 0
-228 -132 0
-233 131 227 0
233 -131 0
233 -227 0
-234 132 228 0
234 -132 0
234 -228 0
-233 -137 0
-234 -138 0
-239 137 233 0
239 -137 0
239 -233 0
-240 138 234 0
240 -138 0
240 -234 0
-239 -143 0
-240 -144 0
-245 143 239 0
245 -143 0
245 -239 0
-246 144 240 0
246 -144 0
246 -240 0
-245 -149 0
-246 -150 0
-251 149 245 0
251 -149 0
251 -245 0
-252 150 246 0
252 -150 0
252 -246 0
-251 -155 0
-252 -156 0
251 0
252 0
-121 128 134 140 146 152 0
-122 0
-127 134 140 146 152 0
-128 121 0
-133 140 146 152 0
-134 121 127 0
-139 146 152 0
-140 121 127 133 0
-145 152 0
-146 121 127 133 139 0
-151 0
-152 121 127 133 139 145 0
-123 130 136 142 148 154 0
-124 0
-129 136 142 148 154 0
-130 123 0
-135 142 148 154 0
-136 123 129 0
-141 148 154 0
-142 123 129 135 0
-147 154 0
-148 123 129 135 141 0
-153 0
-154 123 129 135 141 147 0
-125 132 138 144 150 156 0
-126 0
-131 138 144 150 156 0
-132 125 0
-137 144 150 156 0
-138 125 131 0
-143 150 156 0
-144 125 131 137 0
-149 156 0
-150 125 131 137 143 0
-155 0
-156 125 131 137 143 149 0
